webassembly/ejemplos_results/12/folder12_json_47.txt
value = 12;
fgas = [1, 1, 1, 1, 1, 1, 1, 1, 1, 1, 1, 1];
fsize = [1, 1, 1, 1, 1, 1, 1, 1, 1, 1, 1, 1];
states = 
[|    in_0, in_1, in_2, in_3, in_4, in_5, in_6, in_7, '.', '.', '.', '.', '.', '.'
 |    in_1, in_2, in_3, in_4, in_5, in_6, in_7,  '.', '.', '.', '.', '.', '.', '.'
 |  's(0)', in_2, in_3, in_4, in_5, in_6, in_7,  '.', '.', '.', '.', '.', '.', '.'
 |  's(1)', in_2, in_3, in_4, in_5, in_6, in_7,  '.', '.', '.', '.', '.', '.', '.'
 |  's(2)', in_2, in_3, in_4, in_5, in_6, in_7,  '.', '.', '.', '.', '.', '.', '.'
 |  's(2)', in_2, in_3, in_4, in_5, in_6, in_7,  '.', '.', '.', '.', '.', '.', '.'
 |    in_2, in_3, in_4, in_5, in_6, in_7,  '.',  '.', '.', '.', '.', '.', '.', '.'
 |  's(3)', in_4, in_5, in_6, in_7,  '.',  '.',  '.', '.', '.', '.', '.', '.', '.'
 |  's(4)', in_5, in_6, in_7,  '.',  '.',  '.',  '.', '.', '.', '.', '.', '.', '.'
 |  's(5)', in_6, in_7,  '.',  '.',  '.',  '.',  '.', '.', '.', '.', '.', '.', '.'
 | local_0, in_0,  '.',  '.',  '.',  '.',  '.',  '.', '.', '.', '.', '.', '.', '.'
 |    in_7,  '.',  '.',  '.',  '.',  '.',  '.',  '.', '.', '.', '.', '.', '.', '.'
 |  's(6)',  '.',  '.',  '.',  '.',  '.',  '.',  '.', '.', '.', '.', '.', '.', '.'
 |];
register_states = 
[| local_0, local_1, '.', '.', '.', '.', '.'
 |    in_0, local_1, '.', '.', '.', '.', '.'
 |    in_0, local_1, '.', '.', '.', '.', '.'
 |    in_0, local_1, '.', '.', '.', '.', '.'
 |    in_0, local_1, '.', '.', '.', '.', '.'
 |    in_0,  's(2)', '.', '.', '.', '.', '.'
 |  's(2)',  's(2)', '.', '.', '.', '.', '.'
 |  's(2)',  's(2)', '.', '.', '.', '.', '.'
 |  's(2)',  's(2)', '.', '.', '.', '.', '.'
 |  's(2)',  's(2)', '.', '.', '.', '.', '.'
 |  's(2)',  's(2)', '.', '.', '.', '.', '.'
 |  's(2)',  's(2)', '.', '.', '.', '.', '.'
 |  's(2)',  's(2)', '.', '.', '.', '.', '.'
 |];
program = [S(SET1), O('i32.load16_u_2'), O('i32.load8_s_3'), O('i32.load16_u_4'), TEE(TEE2), S(SET1), O('i32.sub_0'), O('i32.add_0'), O('i32.sub_1'), O('i32.store16_10'), O('i32.store_1'), O('i32.load16_s_11')];
% time elapsed: 0.51 s
----------
==========
% time elapsed: 0.51 s
% [value > 11]
